##TITLE=Nitrocellulose
##JCAMP-DX=4.24
##DATA TYPE=INFRARED SPECTRUM
##ORIGIN=Pacific Northwest National Laboratory Under IARPA Contract
##OWNER=Public domain
##DATE=March 2017
##CAS REGISTRY NO=9004-70-0
##MOLFORM=C 6 H 9 ( N O 2 ) O 5 ; C 6 H 8 ( N O 2 ) 2 O 5 ; C 6 H 7 ( N O 2 ) 3 O 5
##$NIST SOURCE=IARPA-IR-S
##$NIST DOC FILE=META.MIR.PUR.Nitrocellulose.SLD.UNKNOWN.PNNL161235.pdf
##SPECTROMETER/DATA SYSTEM=Bruker IR Cube FTIR
##APERTURE=6 mm
##EXTERNAL DIFFUSE REFLECTANCE ACCESSORY=A 562-G integrating sphere
##BEAMSPLITTER=Ge on KBr
##DETECTOR (DIA. DET. PORT IN SPHERE)=2×2 mm, 60° field of view MCT
##SPHERE DIAMETER=75 mm
##ACQUISITION MODE=double-sided, forward-backward
##SCANNER SPEED=40 kHz
##COADDED SCANS=2048
##PHASE RESOLUTION=32.00
##PHASE CORRECTION=Mertz
##ZEROFILLING=4×
##SPECTRAL RANGE=7,500 to 600 cm-1 saved; 7500 to 600 cm-1 reported
##STATE=solid
##RESOLUTION=0.96450084
##SPECTRAL RESOLUTION=4 cm-1
##WAVENUMBER ACCURACY=± 0.4 cm-1
##APODIZATION FUNCTION=Blackman-Harris 3-term
##LOW PASS FILTER=Open
##SWITCH GAIN ON=512 points
##XUNITS=1/cm
##YUNITS=Reflectance
##XLABEL=Wavenumber
##YLABEL=Hemispherical (Total) reflectance
##XFACTOR=1
##YFACTOR=6.5086409e-010
##DELTAX=-0.96450084
##FIRSTX=7498.994
##LASTX=599.91952
##FIRSTY=0.68973011
##MAXX=7498.99
##MINX=599.92
##MAXY=0.69885999
##MINY=0.010623585
##NPOINTS=7154
##XYDATA=(X++(Y..Y))
7498.99+1059714498+1066285291+1066176680+1066094351+1066086293+1066174207
7493.21+1066360476+1066644642+1067036137+1067553184+1068204394+1068968060
7487.42+1069784109+1070566457+1071230030+1071720428+1072031792+1072202402
7481.63+1072295078+1072374018+1072487849+1072660840+1072890791+1073156367
7475.85+1073437236+1073646399+1073741823+1073725431+1073624604+1073461870
7470.06+1073233567+1072908649+1072448837+1071837098+1071095044+1070278537
7464.27+1069453056+1068662923+1067911345+1067158393+1066333827+1065357609
7458.48+1064161146+1062705793+1060994389+1059068967+1056994091+1054828186
7452.70+1052600925+1050308735+1047933758+1045473889+1042963011+1040464680
7446.91+1038043365+1035732127+1033515397+1031337038+1029128549+1026847165
7441.12+1024500120+1022143368+1019856306+1017713204+1015766079+1014038282
7435.34+1012524594+1011195618+1010006940+1008915242+1007891769+1006921778
7429.55+1005988510+1005049105+1004023893+1002812961+1001335721+999567172
7423.76+997546693+995359451+993104441+990865915+988695432+986607552+984587164
7417.01+982601668+980611867+978582414+976492244+974344838+972173256+970032810
7410.26+967982934+966068777+964316712+962748810+961403991+960348741+959662000
7403.51+959399447+959560440+960081884+960858738+961778453+962749451+963713764
7396.76+964646209+965548158+966442780+967369089+968369026+969470523+970672572
7390.01+971941015+973219989+974452442+975599544+976646003+977590627+978430028
7383.25+979149096+979727501+980158649+980467358+980709306+980949972+981237252
7376.50+981583324+981965752+982338931+982649380+982845997+982888306+982751855
7369.75+982431150+981938645+981298792+980540162+979687482+978754305+977740906
7363.00+976636479+975423532+974082102+972589110+970914520+969023440+966887573
7356.25+964504996+961915819+959198434+956448813+953752582+951164138+948699415
7349.50+946343945+944072085+941867626+939734873+937697086+935783935+934019508
7342.74+932417081+930981417+929716271+928628877+927730683+927034692+926550521
7335.99+926278169+926200419+926278169+926450884+926647135+926802268+926875988
7329.24+926862893+926790729+926706020+926649608+926636512+926647685+926638527
7322.49+926554825+926348501+925985212+925447009+924731238+923848704+922818546
7315.74+921661370+920392286+919018529+917541930+915966701+914306214+912585652
7308.99+910837525+909093061+907372133+905678953+904004454+902335542+900663333
7302.24+898985263+897302797+895619416+893942628+892286811+890672021+889115292
7295.48+887620652+886176654+884764526+883372545+882007762+880696003+879470785
7288.73+878356925+877357721+876450002+875589996+874726235+873815128+872832957
7281.98+871781462+870684453+869580208+868508658+867499105+866559609+865674419
7275.23+864811849+863940487+863045589+862135948+861236929+860373535+859553548
7268.48+858760668+857959546+857109064+856173689+855130436+853970329+852695751
7261.73+851313110+849824698+848224286+846499145+844640392+842654163+840567565
7254.98+838424280+836272936+834153187+832084996+830064700+828068489+826062571
7248.22+824016724+821915108+819759185+817561595+815336897+813096174+810848307
7241.47+808605844+806388381+804222385+802136428+800151481+798269009+796462364
7234.72+794675866+792836619+790872827+788732289+786390464+783846801+781111833
7227.97+778193984+775091972+771795632+768293151+764582834+759642262+755974895
7221.22+752242829+748460257+744642474+740807794+736977877+733176944+729429676
7214.47+725758829+722184139+718721768+715385501+712188065+709142053+706260468
7207.71+703555492+701037013+698710527+696575896+694626573+692850332+691231100
7200.96+689750792+688392558+687138675+685970922+684869838+683814084+682780675
7194.21+681746122+680688170+679587177+678427117+677195671+675883774+674484833
7187.46+672994040+671408005+669722517+667935562+666045993+664053536+661958925
7180.71+659764174+657472213+655087437+652613877+650058081+647427877+644732379
7173.96+641981476+639185379+636353659+633494649+630615079+627720399+624835014
7167.21+621945921+619056690+616171259+613293887+610430756+607586993+604767682
7160.45+601977675+599221644+596503892+593828403+591198886+588618593+586090361
7153.70+583596700+581156795+578772890+576446770+574179947+571973473+569827945
7146.95+567743545+565720043+563756800+561852808+560006647+558216440+556480035
7140.20+554794914+553158145+551566616+550016984+548505631+547028940+545583112
7133.45+544164390+542769066+541393431+540033914+538687127+537349817+536018964
7126.70+534691911+533366278+532039912+530711211+529378756+528041584+526699192
7119.95+525351351+523998336+522640696+521279440+519915893+518551660+517188709
7113.19+515829146+514475444+513130076+511795789+510475376+509171629+507887481
7106.44+506625677+505388920+504179820+503000665+501853700+500740848+499663619
7099.69+498623342+497621024+496657169+495732005+494845258+493996332+493184267
7092.94+492407688+491664901+490953846+490272370+489617865+488987764+488379230
7086.19+487789470+487215644+486655005+486104806+485562574+485026021+484493084
7079.44+483961933+483431149+482899494+482366100+481830416+481292214+480751585
7072.68+480208895+479664786+479120036+478575699+478033009+477493158+476957475
7065.93+476427285+475903873+475388428+474882003+474385560+473899740+473425047
7059.18+472961618+472509499+472068232+471637359+471215918+470802811+470396801
7052.43+469996286+469599663+469205055+468810584+468414235+468013995+467607939
7045.68+467194100+466770690+466336017+465888431+465426650+464949530+464456018
7038.93+463945518+463417526+462871952+462308887+461728650+461132021+460519870
7032.18+459893433+459253991+458603332+457943148+457275547+456602588+455926607
7025.42+455249848+454574782+453903838+453239350+452590797+451959827+451347859
7018.67+450756312+450186333+449639018+449115148+448615454+448140303+447690062
7011.92+447264683+446864122+446487967+446135759+445806766+445493066+445194294
7005.17+444909991+444639654+444382595+444138037+443905200+443683170+443471030
6998.42+443267774+443072347+442883743+442700816+442522514+442347784+442175389
6991.67+442004368+441833621+441662050+441488602+441312361+441132365+440947652
6984.92+440757400+440560874+440357297+440146073+439926652+439698441+439461117
6978.16+439214407+438957989+438691773+438415758+438129989+437834605+437529926
6971.41+437216273+436894056+436563827+436226226+435881894+435531609+435176242
6964.66+434816570+434453602+434088161+433721347+433354028+432987260+432622002
6957.91+432259217+431898309+431540698+431187666+430840541+430500604+430169001
6951.16+429846968+429535467+429235595+428948225+428674178+428414098+428168715
6944.41+427938489+427723785+427526481+427346256+427182835+427035624+426904027
6937.65+426787403+426684881+426595639+426518668+426452961+426397419+426351081
6930.90+426312710+426281207+426255519+426234548+426217194+426202404+426189309
6924.15+426176900+426164399+426151029+426136148+426119114+426099471+426076805
6917.40+426050843+426021355+425988204+425951435+425911050+425867184+425820159
6910.65+425770112+425717500+425662737+425606187+425548402+425489884+425431137
6903.90+425372756+425315245+425259199+425205077+425153336+425104525+425058965
6897.15+425017068+424979063+424945225+424919171+424900810+424890187+424887073
6890.39+424891286+424902687+424920866+424945546+424976362+425012810+425054569
6883.64+425101091+425151916+425206588+425264603+425322113+425378754+425434113
6876.89+425487961+425539977+425589887+425637370+425682334+425724506+425763747
6870.14+425800012+425833163+425863109+425889941+425913614+425934173+425951664
6863.39+425966179+425977901+425986876+425993332+425997453+425999422+425999468
6856.64+425997865+425994889+425990951+425986372+425981656+425977215+425973689
6849.88+425971583+425971674+425974605+425981198+425992279+426008717+426031520
6843.13+426061558+426099791+426147229+426204831+426273514+426354148+426447603
6836.38+426554566+426675815+426811854+426963186+427130086+427312830+427511416
6829.63+427725708+427955431+428200218+428459474+428732422+429018236+429315817
6822.88+429624160+429941934+430267905+430600653+430938804+431280892+431625545
6816.13+431971388+432317002+432661243+433002828+433340795+433674047+434001895
6809.38+434323470+434638314+434951098+435261272+435568240+435871729+436171417
6802.62+436467304+436759391+437047861+437332851+437614773+437893902+438170650
6795.87+438445520+438718926+438991278+439257860+439519315+439776328+440029494
6789.12+440279364+440526395+440770999+441013451+441254163+441493364+441731283
6782.37+441968194+442204328+442439911+442675220+442910575+443146342+443382795
6775.62+443620485+443859824+444101268+444345414+444592766+444843918+445099420
6768.87+445359867+445625854+445897886+446176419+446461959+446754870+447055474
6762.12+447363907+447680308+448004723+448336966+448676949+449024349+449378709
6755.36+449739525+450106339+450478466+450855262+451236042+451620073+452006806
6748.61+452395462+452785629+453176665+453568252+453959975+454351699+454743240
6741.86+455134643+455526046+455917632+456309768+456702865+457097474+457494280
6735.11+457893879+458297096+458704663+459117495+459536371+459962208+460395737
6728.36+460837828+461289169+461750492+462222300+462705143+463199388+463705264
6721.61+464222952+464752455+465293633+465846122+466409645+466983517+467567142
6714.85+468159604+468759987+469367193+469980123+470597402+471217704+471839608
6708.10+472461604+473082226+473699964+474313214+474920557+475520529+476111754
6701.35+476692952+477263069+477820961+478365802+478896953+479413864+479916259
6694.60+480404002+480877275+481336355+481781834+482214493+482635293+483045424
6687.85+483446213+483839128+484225860+484608151+484987787+485366644+485746691
6681.10+486129669+486517547+486911972+487314593+487726968+488150377+488586013
6674.35+489034835+489497577+489974834+490466836+490973673+491495208+492031120
6667.59+492580770+493143515+493718348+494304308+494900204+495504755+496116631
6660.84+496734460+497356822+497982344+498609697+499237508+499864678+500489971
6654.09+501112379+501730940+502344923+502953594+503556405+504152942+504742840
6647.34+505325915+505901939+506470911+507032786+507587564+508135245+508675919
6640.59+509209634+509736298+510256001+510768653+511274116+511772208+512262744
6633.84+512745450+513219960+513685999+514143109+514590878+515028940+515456791
6627.09+515874111+516280441+516675507+517059035+517430932+517791107+518139560
6620.33+518476566+518802446+519117564+519422610+519718314+520005594+520285455
6613.58+520559089+520827824+521092942+521356044+521618598+521882204+522148512
6606.83+522419124+522695643+522979717+523272857+523576529+523892106+524220824
6600.08+524563874+524922172+525296587+525687853+526096427+526522584+526966553
6593.33+527428242+527907422+528403636+528916334+529444692+529987839+530544723
6586.58+531114153+531694802+532285341+532884259+533490137+534101373+534716454
6579.82+535333780+535951883+536569255+537184474+537796167+538403144+539004123
6573.07+539598142+540184193+540761499+541329418+541887401+542435082+542972231
6566.32+543498711+544014614+544520123+545015421+545501012+545977308+546444858
6559.57+546904257+547356193+547801307+548240285+548673768+549102397+549526814
6552.82+549947568+550365117+550779964+551192384+551602744+552011272+552418152
6546.07+552823383+553227058+553629129+554029553+554428237+554824997+555219743
6539.32+555612291+556002549+556390381+556775785+557158763+557539315+557917622
6532.56+558293961+558668605+559042013+559414643+559787227+560160360+560534913
6525.81+560911756+561291849+561676155+562065726+562461617+562864879+563276613
6519.06+563697824+564129384+564572300+565027304+565495129+565976324+566471439
6512.31+566980702+567504344+568042317+568594485+569160527+569739985+570332218
6505.56+570936402+571551575+572176684+572810539+573451721+574098901+574750568
6498.81+575405119+576060953+576716512+577370102+578020212+578665286+579303811
6492.06+579934416+580555725+581166640+581766016+582353029+582926809+583486807
6485.30+584032518+584563623+585080076+585581784+586069023+586542068+587001422
6478.55+587447634+587881484+588303794+588715436+589117417+589510834+589896743
6471.80+590276287+590650611+591020859+591388178+591753710+592118418+592483401
6465.05+592849621+593217900+593589111+593963938+594343116+594727238+595116764
6458.30+595512197+595913902+596322247+596737461+597154964+597579838+598012223
6451.55+598452162+598899656+599354798+599817494+600287791+600765598+601250914
6444.79+601743648+602243800+602751186+603265670+603786976+604319729+604858527
6438.04+605403139+605953018+606507704+607066648+607629210+608194703+608762393
6431.29+609331457+609900933+610469905+611037412+611602401+612163864+612720840
6424.54+613272275+613817345+614355044+614884546+615405166+615916123+616416870
6417.79+616906994+617385992+617853679+618309873+618754575+619187875+619609911
6411.04+620021094+620421839+620812646+621194297+621567384+621932825+622291443
6404.29+622644155+622991830+623335429+623675915+624014203+624351255+624688032
6397.53+625025450+625364334+625705598+626049930+626398017+626750545+627108065
6390.78+627470941+627839588+628214232+628595058+628982020+629375071+629774029
6384.03+630178665+630588659+631003643+631423161+631846708+632273689+632703555
6377.28+633135664+633569285+634003775+634438449+634872573+635305552+635736746
6370.53+636165513+636591303+637013568+637431849+637845735+638254950+638659311
6363.78+639058727+639453153+639842724+640227534+640607902+640984057+641356412
6357.03+641725470+642091690+642455665+642817947+643179175+643539854+643900487
6350.27+644261669+644623814+644987423+645352864+645720548+646090797+646463747
6343.52+646839628+647218485+647600227+647984807+648371952+648761432+649152789
6336.77+649545704+649939579+650333913+650728063+651121344+651513159+651902868
6330.02+652289830+652673540+653053405+653429056+653799992+654165937+654526661
6323.27+654881937+655231672+655575867+655914613+656248047+656576491+656900264
6316.52+657219779+657535493+657847910+658157626+658465235+658771426+659076746
6309.76+659381883+659687477+659994125+660302376+660612824+660925837+661241963
6303.01+661561524+661884793+662212092+662543466+662879098+663218897+663562863
6296.26+663910813+664262517+664617655+664975907+665336815+665699966+666064812
6289.51+666430848+666797525+667164248+667530559+667895771+668259472+668621021
6282.76+668979914+669335739+669687993+670036308+670380320+670719707+671054286
6276.01+671383875+671708289+672027529+672341640+672650623+672954661+673253937
6269.26+673548772+673839394+674126169+674409556+674689830+674967539+675243097
6262.50+675516914+675789449+676061069+676332185+676603255+676874645+677146723
6255.75+677419716+677693945+677969640+678247029+678526204+678807347+679090460
6249.00+679375633+679662820+679951931+680242965+680535739+680830024+681125591
6242.25+681422211+681719656+682017695+682316056+682614691+682913326+683211869
6235.50+683510229+683808269+684105851+684402929+684699411+684995116+685287936
6228.75+685579611+685870599+686161358+686452255+686743472+687035055+687326776
6221.99+687618268+687908936+688198138+688485188+688769491+689050498+689328024
6215.24+689604085+689876986+690146500+690412258+690674125+690931687+691184625
6208.49+691432663+691675527+691912988+692144909+692371243+692591899+692806649
6201.74+693015217+693217284+693412527+693600857+693782364+693957460+694126925
6194.99+694291719+694452987+694611966+694769755+694927497+695086202+695246875
6188.24+695410524+695578065+695750369+695928396+696111689+696300156+696493385
6181.49+696690689+696891381+697094638+697299910+697506600+697714116+697921997
6174.73+698129695+698336478+698541703+698744685+698944416+699140988+699334217
6167.98+699523874+699710006+699892658+700071967+700248163+700421519+700592449
6161.23+700761547+700929455+701096951+701264950+701434323+701606031+701780807
6154.48+701959384+702142310+702329999+702522678+702720578+702923514+703131304
6147.73+703343489+703559521+703778483+703999506+704221445+704443338+704663994
6140.98+704928791+705154530+705372989+705583389+705785455+705979416+706166052
6134.23+706345956+706519816+706688274+706851602+707009986+707163654+707312742
6127.47+707457984+707600342+707741188+707881989+708024438+708170138+708320509
6120.72+708476557+708638696+708806832+708980235+709157667+709337571+709518254
6113.97+709698296+709876918+710054212+710231232+710409992+710592964+710782759
6107.22+710981437+711190188+711408693+711635164+711866169+712096945+712321997
6100.47+712535556+712732494+712909102+713063456+713195878+713308930+713407193
6093.72+713496527+713583068+713672448+713768696+713873827+713987201+714106023
6086.96+714225669+714340187+714443395+714529661+714594636+714635891+714653428
6080.21+714649491+714628336+714595689+714557547+714519679+714486528+714460749
6073.46+714525494+714549213+714530806+714474302+714387304+714278601+714156436
6066.71+713944617+713778541+713660680+713588471+713557106+713562600+713603627
6059.96+713681423+713798367+713956064+714153918+714387990+714651047+714932649
6053.21+715220020+715499149+715755291+715973567+716139735+716241157+716268218
6046.46+716215378+716081903+715871687+715593062+715257887+714880495+714476454
6039.70+714061424+713650103+713255083+712886299+712550484+712251711+711991814
6032.95+711770837+711586994+711435983+711310842+711201727+711096504+710981574
6026.20+710843521+710670988+710456880+710199638+709903567+709577688+709233814
6019.45+708885086+708544691+708225635+707939866+707697231+707503407+707358577
6012.70+707257429+707189616+707141766+707099549+707050555+706986725+706906137
6005.95+706812682+706714602+706621559+706541749+706479522+706434512+706401910
5999.20+706374437+706344445+706305982+706255798+706194624+706127589+706064767
5992.44+706020031+706010095+706052404+706163716+706358090+706644683+707024822
5985.69+707490449+708024118+708601195+709193336+709772474+710314476+710801853
5978.94+711224621+711580126+711871801+712107247+712296035+712448146+712572508
5972.19+712676632+712766928+712848844+712926868+713004297+713083054+713163596
5965.44+713244780+713323491+713394830+713452387+713488972+713497306+713470977
5958.69+713404904+713296018+713144045+712951960+712727091+712481938+712234495
5951.93+712006970+711822441+711700230+711651877+711678297+711768776+711902388
5945.18+712051797+712188523+712287701+712331521+712309634+712217965+712056880
5938.43+711828943+711537405+711185564+710776898+710315758+709807868+709260234
5931.68+708680684+708077553+707459495+706835668+706215687+705609671+705027374
5924.93+704477130+703963837+703487266+703040825+702612195+702184344+701738086
5918.18+701254556+700718231+700119313+699455100+698730491+697956797+697150592
5911.43+696331017+695517349+694726759+693972708+693264629+692607742+692003604
5904.67+691450475+690943501+690475264+690035645+689611869+689189192+688752458
5897.92+688287884+687784848+687236755+686643011+686008606+685342745+684654584
5891.17+683952641+683246348+682546236+681861327+681197709+680557764+679943140
5884.42+679354570+678789764+678242496+677702187+677154690+676584390+675976451
5877.67+675319335+674606174+673835181+673008967+672132614+671211800+670250784
5870.92+669252129+668217346+667148360+666049702+664928470+663793273+662651207
5864.17+661505478+660354667+659194744+658022549+656839914+655655265+654483253
5857.41+653341554+652247567+651214845+650251081+649358015+648531618+647764105
5850.66+647045037+646363424+645709284+645075429+644459615+643867061+643312650
5843.91+642822068+642430207+642176674+642098924+642225073+642567848+643121527
5837.16+643861566+644747627+645728287+646747455+647750872+648692794+649541079
5830.41+650280386+650912776+651454961+651940186+652395144+652844791+653308311
5823.66+653796512+654304631+654831478+655365055+655902525+656442009+656983188
5816.90+657527068+658081433+658642713+659206465+659768249+660324400+660872539
5810.15+661411657+661941938+662464205+662979421+663488181+663990210+664484410
5803.40+664968993+665441534+665899560+666340461+666761810+667161180+667536374
5796.65+667885148+668205441+668495285+668753167+668978036+669169617+669328688
5789.90+669457308+669558685+669637167+669697883+669746602+669789369+669831907
5783.15+669879253+669935252+670001601+670078022+670161724+670247990+670330456
5776.40+670401933+670455277+670483895+670482704+670448500+670380229+670278852
5769.64+670146934+669988230+669807456+669609648+669400255+669184636+668967642
5762.89+668753717+668546110+668347066+668157592+667977184+667803919+667634271
5756.14+667463249+667284627+667091719+666877427+666635112+666358822+666043749
5749.39+665686230+665284204+664837350+664347226+663817586+663254017+662664394
5742.64+662057967+661445220+660836823+660242805+659671955+659131234+658625634
5735.89+658158221+657730279+657341165+656988362+656667199+656370991+656091312
5729.13+655818456+655542304+655253285+654943157+654605647+654236726+653834517
5722.38+653399156+652932385+652437590+651919352+651383531+650836720+650285651
5715.63+649736643+649195007+648664314+648146533+647642078+647149985+646668835
5708.88+646196844+645732362+645273969+644820431+644370464+643923107+643477581
5702.13+643033795+642592574+642155794+641725883+641305724+640898020+640504923
5695.38+640127989+639767859+639424626+639097511+638784864+638484260+638192265
5688.63+637904253+637614913+637318156+637007753+636678073+636324400+635943574
5681.87+635533901+635095107+634628289+634135555+633619881+633085113+632535738
5675.12+631976748+631413408+630851258+630295610+629751776+629224517+628718001
5668.37+628235386+627778597+627348090+626942492+626559011+626193112+625839210
5661.62+625490894+625141571+624784830+624415085+624027711+623619091+623186570
5654.87+622728727+622245013+621736025+621203271+620649318+620077369+619491272
5648.12+618895284+618293847+617691586+617093080+616503182+615926518+615367756
5641.37+614831019+614320107+613837905+613386518+612967138+612580130+612225358
5634.61+611902272+611610139+611347723+611113422+610904487+610717073+610546235
5627.86+610385974+610230017+610072000+609906244+609727943+609533523+609320697
5621.11+609088684+608838219+608571637+608292828+608007289+607721887+607444498
5614.36+607183090+606944942+606735687+606558758+606414844+606302066+606216212
5607.61+606151283+606099679+606053204+606003111+605941204+605859883+605753149
5600.86+605616927+605449478+605251944+605027991+604784028+604528206+604269957
5594.10+604019263+603785785+603578453+603404822+603270798+603180411+603135400
5587.35+603135126+603176519+603254222+603361048+603488158+603626120+603765547
5580.60+603897510+604014317+604109558+604178471+604217941+604226503+604204479
5573.85+604153561+604077186+603979838+603867244+603745674+603621770+603501940
5567.10+603392093+603297310+603221438+603167086+603135355+603125693+603136087
5560.35+603163240+603202710+603249689+603299187+603346350+603387056+603417643
5553.60+603435592+603439255+603428266+603403448+603367000+603322219+603272996
5546.84+603223635+603178076+603139659+603110491+603091809+603083659+603085353
5540.09+603095701+603113055+603135492+603161088+603187737+603213608+603237189
5533.34+603257565+603274186+603287190+603296852+603303537+603307292+603307933
5526.59+603305002+603297813+603285679+603268096+603244698+603215210+603179358
5519.84+603136774+603086773+603028392+602960487+602881684+602790564+602685662
5513.09+602565787+602430069+602278325+602111195+601930283+601738199+601538285
5506.34+601334525+601130993+600931720+600740368+600560372+600394800+600246444
5499.58+600118006+600011730+599929402+599871983+599839518+599830910+599844006
5492.83+599875921+599922992+599981189+600046255+600113656+600178631+600236554
5486.08+600283029+600314166+600326895+600318974+600289028+600236508+600161323
5479.33+600063975+599945245+599806505+599649861+599478336+599295913+599107400
5472.58+598918109+598733443+598558117+598396071+598249684+598119826+598005995
5465.83+597906267+597817574+597736253+597657863+597577732+597491008+597392928
5459.07+597279143+597145943+596990582+596811547+596608611+596383009+596137444
5452.32+595875989+595603500+595325607+595048035+594776095+594514549+594267015
5445.57+594035918+593822267+593625650+593444509+593276190+593117485+592964963
5438.82+592815004+592664084+592508722+592345302+592170160+591979358+591768820
5432.07+591534381+591272011+590978093+590649603+590284300+589880763+589438076
5425.32+588955965+588434613+587874432+587276292+586641522+585971814+585269458
5418.57+584537157+583778161+582996179+582195378+581380061+580554488+579722688
5411.81+578887911+578052265+577217946+576383993+575548255+574707389+573856998
5405.06+572992688+572110153+571204587+570273883+569316621+568332343+567321417
5398.31+566284712+565223372+564138542+563031459+561903130+560754471+559585985
5391.56+558397810+557189259+555958729+554703519+553420241+552104864+550753406
5384.81+549362066+547927822+546448384+544922378+543349577+541731124+540069492
5378.06+538442935+536692610+534912110+533109998+531293005+529464930+527626279
5371.31+525774898+523906667+522016686+520099232+518147802+516154705+514111606
5364.55+512010172+509843260+507605971+505296152+502915177+500467534+497960732
5357.80+495404157+492807745+490181022+487532319+484869011+482197826+479525222
5351.05+476856556+474195537+471542896+468896026+466249521+463596607+460930505
5344.30+458245217+455535433+452796297+450023645+447214269+444365653+441476056
5337.55+438544424+435571171+432558493+429510283+426431532+423327093+420200492
5330.80+417053516+413886484+410699534+407493764+404271328+401034834+397786755
5324.04+394529474+391266056+387999983+384734596+381471888+378211561+374951738
5317.29+371690083+368425223+365157204+361887261+358617204+355348750+352083524
5310.54+348999278+345749986+342466765+339155956+335828686+332499584+329185318
5303.79+325904478+322676409+319526708+316474629+313525895+310665740+307860028
5297.04+305063931+302234821+299343255+296379296+293351050+290277382+287179422
5290.29+284076334+280985815+277925494+274911099+271953139+269055712+266219962
5283.54+263448500+260746957+258120531+255568947+253084055+250653399+248268670
5276.78+245934125+243667737+241492422+239421873+237451029+235558438+233720268
5270.03+231926329+230188871+228538205+227008445+225621249+224377212+223258338
5263.28+222239719+221301322+220432525+219627831+218879092+218172089+217490133
5256.53+216821020+216161294+215514321+214884930+214276282+213691695+213139069
5249.78+212632164+212186593+211812108+211506376+211255110+211038986+210843079
5243.03+210663655+210506714+210379512+210281936+210203729+210127948+210035730
5236.28+209909124+209733844+209504304+209229571+208933775+208647915+208396260
5229.52+208185150+208002041+207824426+207633394+207422422+207197141+206966434
5222.77+206732270+206485628+206212933+205907887+205580337+205254938+204959989
5216.02+204714836+204523301+204375746+204256466+204151427+204052019+203955198
5209.27+203860484+203766251+203668148+203560956+203444126+203326037+203222783
5202.52+203150162+203113187+203100984+203089377+203050937+202965884+202828449
5195.77+202645729+202431116+202197456+201954294+201709484+201472229+201254091
5189.01+201067891+200925647+200836130+200802979+200823424+200888352+200983570
5182.26+201092754+201201708+201302948+201398211+201496154+201605749+201730364
5175.51+201866952+202010706+202160916+202322528+202501814+202699599+202906428
5168.76+203103732+203270495+203392614+203470203+203517732+203556675+203604662
5162.01+203667896+203742212+203821907+203909089+204016830+204163171+204359812
5155.26+204602493+204869373+205128446+205351461+205526443+205662528+205783548
5148.51+205915236+206073345+206259775+206466809+206685222+206910800+207145949
5141.75+207396620+207666523+207952428+208244561+208532047+208809710+209080070
5135.00+209348737+209617517+209882017+210136351+210380611+210623292+210876070
5128.25+211143545+211416584+211674811+211898306+212081370+212239089+212401274
5121.50+212597570+212842541+213130690+213443657+213763858+214085159+214414495
5114.75+214764345+215142103+215543648+215954283+216356561+216739859+217105689
5108.00+217465544+217832015+218209796+218592202+218966526+219324091+219667828
5101.24+220011313+220369794+220749750+221144999+221542286+221931354+222311631
5094.49+222690304+223074496+223463358+223846244+224207152+224532161+224815297
5087.74+225060427+225279092+225486676+225698930+225930118+226191435+226488284
5080.99+226817689+227168180+227524738+227876991+228224689+228576073+228940026
5074.24+229317944+229701838+230080443+230448974+230816201+231203758+231637035
5067.49+232132631+232688691+233283785+233885085+234461223+234992236+235472676
5060.74+235907762+236307704+236683379+237044493+237399288+237754678+238117486
5053.98+238496229+238902216+239347970+239842696+240386965+240969949+241571248
5047.23+242168083+242744107+243295542+243830745+244362582+244898678+245436079
5040.48+245964254+246474250+246967236+247455208+247966715+248455190+248928395
5033.73+249387337+249834465+250271795+250699943+251118408+251527073+251927611
5026.98+252323868+252721476+253126570+253544118+253976846+254424615+254884862
5020.23+255353602+255826967+256302210+256777979+257253863+257729174+258201852
5013.48+258668876+259127176+259575839+260017060+260455649+260897190+261345898
5006.72+261803627+262270238+262745160+263228576+263721859+264226659+264743477
4999.97+265265196+265785220+266307327+266835341+267370750+267911608+268451963
4993.22+268982839+269494712+269981677+270445083+270898988+271357495+271819435
4986.47+272276477+272717492+273133759+273522918+273889641+274243429+274594813
4979.72+274950912+275313285+275679551+276047899+276420918+276804125+277201206
4972.97+277610169+278025085+278442313+278865264+279304151+279770602+280271578
4966.21+280805934+281365153+281937605+282514911+283097666+283695462+284320343
4959.46+284975627+285648403+286310601+286929163+287480026+287959252+288385775
4952.71+288793525+289215469+289667314+290141640+290616425+291073283+291511849
4945.96+291950048+292411234+292908249+293435805+293975015+294504792+295011881
4939.21+295493419+295952796+296394269+296820953+297236372+297645747+298053291
4932.46+298457790+298851803+299227180+299583761+299934641+300302829+300711014
4925.71+301171375+301680455+302222046+302776709+303331899+303887684+304453932
4918.95+305041105+305651631+306277038+306902148+307512628+308101816+308673444
4912.20+309240699+309819997+310421617+311041025+311656405+312235634+312750278
4905.45+313189164+313564999+313909880+314262844+314653972+315094186+315575267
4898.70+316080684+316599793+317135454+317700786+318308060+318957781+319635411
4891.95+320316314+320975490+321596822+322177631+322726845+323259232+323788643
4885.20+324324304+324870084+325424908+325983280+326536730+327076924+327600016
4878.45+328108845+328611309+329116108+329628783+330150616+330679683+331213077
4871.69+331747388+332278492+332801813+333313504+333812969+334304375+334795277
4864.94+335292223+335795970+336300631+336797967+337284199+337763975+338247963
4858.19+338746397+339263239+339795809+340338659+340888103+341443132+342002878
4851.44+342563677+343119897+343667990+344210542+344756070+345314008+345888566
4844.69+346476518+347069117+347657092+348233597+348794945+349338963+349864321
4837.94+350370494+350858878+351333434+351801052+352271098+352754743+353262999
4831.18+353803880+354379858+354987339+355618515+356265351+356922605+357587688
4824.43+358257808+358926829+359584975+360222218+360833614+361422505+362000108
4817.68+362581031+363177683+363796176+364435480+365088727+365746713+366401104
4810.93+367047231+367684909+368317505+368949048+369581461+370213461+370841593
4804.18+371462352+372074206+372678115+373277102+373875105+374474687+375075208
4797.43+375672638+376261666+376838582+377402587+377953747+378489729+379005105
4790.68+379495046+379961451+380416318+380879266+381368474+381891474+382440597
4783.92+382997710+383546169+384080983+384610783+385150588+385709944+386285831
4777.17+386864282+387429041+387971548+388497204+389023547+389571365+390151921
4770.42+390759402+391372103+391963924+392517832+393033643+393526194+394015677
4763.67+394517202+395033929+395557800+396077228+396587042+397094977+397618436
4756.92+398173671+398764439+399378834+399995244+400591827+401154892+401681876
4750.17+402181433+402670686+403169739+403694800+404251776+404834851+405430198
4743.42+406022477+406599737+407154514+407682002+408177346+408635326+409052417
4736.66+409429946+409775377+410101256+410421137+410747108+411089014+411455828
4729.91+411855885+412294176+412768320+413266091+413768257+414255817+414718605
4723.16+415157720+415581541+415997258+416405741+416803234+417187769+417563558
4716.41+417938706+418319166+418703563+419084389+419453127+419805060+420140921
4709.66+420464328+420778439+421082935+421374473+421648244+421902831+422139422
4702.91+422362001+422574461+422778176+422972367+423157170+423337395+423523939
4696.15+423732141+423977112+424267275+424603686+424979384+425384111+425808849
4689.40+426247964+426696878+427148997+427593744+428016833+428403154+428739611
4682.65+429018694+429241136+429415958+429556804+429676908+429784924+429883782
4675.90+429973803+430056773+430139147+430231045+430341992+430474367+430619747
4669.15+430762471+430888710+430994208+431084641+431167061+431240003+431292385
4662.40+431312303+431299070+431268437+431246871+431258639+431314455+431407727
4655.65+431520322+431634290+431743268+431857007+431993779+432166906+432373460
4648.89+432594712+432808271+433002645+433183831+433370879+433584575+433837376
4642.14+434129279+434449664+434783053+435116029+435443008+435767513+436099025
4635.39+436447478+436818413+437212838+437629563+438067900+438528719+439013989
4628.64+439525405+440061775+440616690+441177238+441725926+442245904+442725496
4621.89+443159804+443548551+443893524+444198661+444471700+444725599+444976339
4615.14+445238343+445519807+445819632+446127288+446426426+446701755+446946450
4608.38+447165962+447373432+447580763+447790476+447995611+448186458+448358808
4601.63+448516642+448667928+448817246+448959924+449082821+449171377+449218860
4594.88+449232276+449229987+449232093+449250592+449285254+449328524+449372939
4588.13+449416393+449460808+449506689+449547761+449569969+449556553+449497989
4581.38+449399817+449283605+449177513+449102510+449062033+449042802+449024761
4574.63+448994174+448950675+448904931+448869720+448849619+448837484+448819856
4567.88+448787437+448744304+448708451+448704056+448749295+448847741+448985978
4561.12+449139462+449283743+449404625+449501286+449579813+449641491+449963936
4554.37+449866589+449761961+449677618+449577387+449396063+449122062+448855342
4547.62+448773701+449016244+449569145+450240776+450749169+450861169+450490829
4540.87+449698315+448611196+447351865+446045372+444896071+444228103+444390562
4534.12+445544304+447481951+449656693+451444702+451296026+452017429+452444731
4527.37+452635212+452682237+452666440+452625688+452561492+452465931+452342484
4520.62+452208185+452082815+451981805+451915778+451892425+451914633+451976997
4513.86+452066652+452167754+452265284+452343583+452382275+452357457+452249762
4507.11+452055159+451788485+451476113+451143366+450805673+450468896+450134042
4500.36+449800928+449467127+449126595+448770312+448388983+447973357+447512447
4493.61+446992102+446395656+445706992+444913517+444007767+442990431+441872358
4486.86+440674247+439421189+438134110+436823221+435485958+434110140+432679238
4480.11+431178371+429600120+427947921+426235372+424482483+422709539+420932473
4473.35+419159254+417386950+415601185+413779384+411897507+409939255+407904078
4466.60+405811527+403701623+401628257+399646378+397796417+396093209+394523979
4459.85+393055164+391644272+390253435+388862690+387479272+386137521+384887806
4453.10+383778662+382841593+382086260+381503666+381073044+380767587+380560140
4446.35+380430924+380374375+380401482+380533056+380787528+381169338+381663286
4439.60+382236974+382848530+383456217+384026448+384538345+384984328+385367444
4432.85+385696940+385984265+386238302+386463217+386658186+386820370+386949357
4426.09+387050688+387136130+387221068+387320659+387446304+387603680+387791506
4419.34+388001265+388217342+388419500+388587133+388704581+388765801+388775279
4412.59+388744189+388683427+388598489+388488779+388351870+388186252+387988627
4405.84+387748922+387447632+387060624+386567936+385960272+385240105+384419340
4399.09+383518764+382567615+381599296+380641576+379706270+378785662+377860017
4392.34+376910036+375926377+374911604+373875952+372830661+371782371+370729754
4385.59+369662736+368564765+367418418+366211218+364939524+363608419+362229464
4378.83+360817725+359389983+357962447+356548029+355152751+353773087+352396811
4372.08+351007829+349592450+348145133+346672059+345191362+343730217+342318432
4365.33+340979520+339724173+338547239+337431822+336356608+335304174+334268270
4358.58+333256657+332288772+331388059+330572926+329851294+329221834+328678664
4351.83+328215418+327825892+327503699+327242794+327037866+326882390+326764919
4345.08+326667640+326570385+326458569+326329787+326195763+326078681+326004458
4338.32+325994201+326055970+326180287+326342334+326510310+326654705+326754571
4331.57+326799924+326792392+326744703+326676386+326604475+326534349+326457630
4324.82+326359436+326228617+326062129+325860864+325623059+325342694+325014823
4318.07+324641781+324235016+323810897+323385953+322975090+322591791+322246268
4311.32+321940124+321661041+321383790+321079935+320730726+320334950+319907007
4304.57+319467755+319034684+318617067+318216666+317831284+317457326+317090901
4297.82+316727521+316361805+315988511+315604778+315211246+314810982+314405636
4291.06+313991682+313559848+313098090+312595053+312041535+311431238+310758852
4284.31+310023643+309232137+308397818+307538063+306669083+305800880+304938470
4277.56+304081966+303229126+302377385+301523995+300665042+299795099+298910023
4270.81+298011211+297107820+296215418+295352367+294536684+293783709+293102417
4264.06+292490174+291929924+291393714+290852558+290287226+289694558+289087627
4257.31+288491776+287938120+287455002+287059821+286755119+286532448+286380315
4250.56+286295262+286282510+286351720+286511065+286763110+287103458+287522449
4243.80+288004171+288531613+289090763+289672763+290272803+290887678+291514253
4237.05+292149459+292790297+293431845+294064395+294672402+295237230+295741938
4230.30+296175719+296535871+296827180+297059970+297246835+297398052+297517287
4223.55+297599569+297634552+297613993+297540089+297430219+297314511+297226527
4216.80+297190766+297213180+297279459+297361353+297426899+297448832+297409225
4210.05+297302193+297134583+296923977+296691027+296449284+296199323+295932076
4203.29+295638158+295314659+294964878+294592798+294199128+293781694+293337840
4196.54+292865871+292366155+291843475+291309897+290785615+290294850+289859055
4189.79+289491164+289192598+288953099+288752590+288564810+288362949+288125672
4183.04+287842284+287515627+287161175+286802328+286462300+286155743+285884605
4176.29+285639176+285403272+285160431+284899595+284619207+284328470+284043343
4169.54+283779004+283542756+283331532+283134068+282934451+282715375+282461361
4162.79+282162749+281818440+281434225+281018348+280578363+280121940+279659976
4156.03+279207193+278779113+278387595+278037722+277725786+277438392+277152876
4149.28+276841489+276478497+276048448+275551273+275002883+274430202+273861229
4142.53+273313320+272785924+272263381+271726507+271165731+270587326+270010707
4135.78+269461218+268961249+268522935+268142201+267798304+267460382+267099841
4129.03+266700516+266261515+265792088+265303681+264804903+264300287+263792145
4122.28+263282813+262776480+262278503+261792843+261318929+260851035+260381196
4115.53+259903664+259417386+258925293+258431071+257936254+257439445+256937759
4108.77+256429892+255918339+255410403+254916525+254447647+254012264+253613900
4102.02+253250016+252912186+252588619+252267617+251940135+251598985+251236062
4095.27+250840240+250399202+249905209+249361306+248783405+248196140+247624237
4088.52+247084890+246584487+246120783+245687391+245277329+244884209+244502193
4081.77+244125694+243748668+243363561+242961260+242534142+242081725+241614473
4075.02+241151524+240712341+240307544+239933907+239575518+239208222+238805487
4068.26+238345812+237820637+237240080+236631867+236031872+235471325+234967144
4061.51+234519764+234117372+233741422+233371631+232989500+232581842+232143803
4054.76+231679207+231197050+230706422+230212589+229717246+229221100+228726512
4048.01+228238678+227764992+227313995+226893630+226507928+226153819+225820225
4041.26+225491346+225152715+224795241+224415583+224014266+223594611+223162914
4034.51+222727371+222293819+221861320+221422068+220966102+220487540+219987503
4027.76+219473202+218955765+218449226+217969199+217529740+217139505+216799362
4021.00+216504001+216244653+216010168+215786741+215558186+215309393+215030310
4014.25+214718213+214376445+214012744+213638992+213272269+212933684+212643588
4007.50+212414781+212247515+212128693+212034940+211937478+211804324+211616269
4000.75+211364980+211050411+210680528+210269871+209838494+209413459+209015279
3994.00+208659935+208359079+208117543+207931778+207790542+207677123+207573525
3987.25+207465601+207346367+207216281+207080105+206943127+206808279+206674736
3980.49+206538606+206395355+206244000+206091111+205951226+205841928+205775580
3973.74+205752617+205760630+205779655+205789729+205777274+205738377+205678920
3966.99+205612801+205557190+205526947+205529099+205560647+205610420+205664336
3960.24+205711522+205748473+205779152+205811135+205850582+205898890+205953333
3953.49+206009699+206064966+206119180+206176507+206245809+206338783+206464748
3946.74+206624368+206808394+207002103+207191830+207367086+207517938+207633280
3939.99+207704802+207733168+207728796+207706359+207677970+207651550+207632799
3933.23+207626663+207636004+207658853+207687654+207711716+207721149+207711739
3926.48+207687082+207657044+207633623+207627968+207648642+207700315+207781201
3919.73+207881433+207985419+208078210+208151106+208203992+208243188+208278330
3912.98+208318785+208370618+208433349+208499262+208555582+208589305+208592488
3906.23+208567487+208528361+208495942+208488135+208512083+208563938+208634408
3899.48+208713668+208793432+208867175+208931348+208984784+209027390+209060313
3892.73+209088633+209121624+209167413+209224946+209283419+209333283+209377446
3885.97+209428066+209491621+209558541+209609985+209634963+209638534+209631872
3879.22+209617105+209585694+209531640+209465567+209410231+209380125+209364923
3872.47+209335893+209269339+209163521+209035152+208903760+208783862+208688278
3865.72+208631042+208618152+208635255+208647663+208616870+208520943+208362330
3858.97+208159875+207933746+207695919+207451590+207208176+206978316+206774006
3852.22+206598200+206445815+206310760+206188779+206069362+205928515+205734622
3845.46+205464949+205119563+204721269+204303377+203895032+203513267+203163326
3838.71+202842483+202542589+202251510+201956126+201648035+201328498+201007358
3831.96+200694917+200393100+200093183+199783238+199458664+199124955+198789208
3825.21+198448791+198090607+197703829+197293240+196877203+196473070+196085719
3818.46+195712037+195351999+195011582+194692204+194383839+194070621+193743940
3811.71+193406110+193061068+192703342+192320525+191904270+191456592+190984932
3804.96+190494900+189990879+189482840+188986329+188512952+188061257+187620150
3798.20+187181103+186746453+186324875+185921200+185531926+185148868+184764528
3791.45+184372369+183963864+183527462+183052173+182533134+181974624+181389053
3784.70+180792207+180197845+179614323+179044572+178488077+177942114+177401485
3777.95+176858853+176307005+175740712+175155484+174544581+173899496+173215273
3771.20+172495816+171753052+171000752+170249609+169507738+168783736+168085364
3764.45+167414672+166732429+166084964+165470466+164867484+164234201+163537088
3757.70+162767710+161941518+161081054+160200580+159297555+158279291+157314051
3750.94+156353961+155426291+154552651+153739040+152974721+152242202+151526007
3744.19+150813647+150091969+149348816+148578373+147782528+146962827+146112860
3737.44+145220367+144277013+143285616+142260438+141222725+140194296+139189860
3730.69+138210951+137245619+136274987+135281609+134254016+133186895+132080785
3723.94+130942256+129782791+128613790+127440244+126257759+125054885+123817957
3717.19+122534987+121197850+119803796+118356331+116864381+115339406+113792441
3710.43+112232414+110666035+109097366+107526236+105946371+104345581+102708607
3703.68+101021024+99271833+97455057+95571538+93631407+91655349+89671770
3696.93+87709809+85791691+83928737+82122589+80369746+78666572+77012902+75413972
3689.22+73880000+72423285+71053557+69773741+68578114+67454038+66386533+65363564
3681.50+64379327+63433787+62529858+61671666+60865960+60123390+59455365+58866818
3673.78+58350829+57889964+57462846+57049327+56631670+56195428+55734185+55255016
3666.07+54778343+54329612+53928204+53581107+53283319+53021361+52777089+52532525
3658.35+52275821+52006068+51732931+51471099+51233009+51023868+50840461+50673337
3650.64+50510781+50343234+50167325+49988010+49817378+49669514+49553073+49466057
3642.92+49396189+49326464+49242493+49137590+49013548+48877086+48735187+48592589
3635.20+48451794+48313122+48173088+48023525+47854953+47663172+47453451+47238472
3627.49+47033401+46852629+46708575+46608858+46551319+46521018+46494618+46449710
3619.77+46372968+46262225+46122835+45962082+45785194+45593914+45387340+45164457
3612.06+44927248+44682970+44443795+44223459+44032225+43872782+43739353+43620571
3604.34+43504917+43385912+43264903+43150274+43053951+42986968+42955663+42959243
3596.62+42989378+43032056+43071600+43094992+43094420+43066549+43010023+42923467
3588.91+42806142+42659898+42490262+42305055+42112083+41917987+41729054+41552655
3581.19+41397834+41274425+41191404+41155176+41168063+41227271+41324183+41444527
3573.48+41570183+41682901+41768979+41822523+41845738+41845847+41830384+41803667
3565.76+41766154+41716527+41654332+41580815+41498083+41407951+41312195+41214201
3558.04+41120165+41038446+40976932+40939491+40923499+40919521+40913113+40887889
3550.33+40829285+40728816+40588004+40419939+40246473+40091484+39973483+39901572
3542.61+39875996+39891475+39940220+40013007+40099228+40187569+40267891+40333066
3534.90+40379722+40408068+40421656+40427045+40432330+40443809+40462259+40481427
3527.18+40490376+40479250+40445289+40395479+40344047+40305973+40290233+40296429
3519.46+40315806+40335078+40340896+40323693+40280775+40217349+40144132+40071643
3511.75+40004333+39938489+39865567+39778600+39677584+39570793+39471737+39393948
3504.03+39346445+39331775+39346499+39383268+39433521+39490021+39548860+39609771
3496.32+39674605+39744814+39819716+39896398+39970318+40035098+40081373+40096475
3488.60+40067053+39984444+39850059+39677427+39490145+39316842+39184976+39114370
3480.88+39111545+39166546+39254770+39344622+39408449+39431661+39416072+39376531
3473.17+39333398+39304170+39297173+39309270+39328241+39338303+39325857+39283356
3465.45+39210947+39116450+39014023+38921330+38855540+38829477+38849349+38914415
3457.74+39017973+39148843+39293556+39439462+39577807+39704494+39817383+39911803
3450.02+39978257+40004754+39982343+39909442+39792546+39644381+39482071+39326172
3442.30+39198830+39119781+39101117+39144218+39240861+39377707+39540449+39714679
3434.59+39884241+40031037+40139021+40200292+40218187+40204016+40169374+40119733
3426.87+40053542+39966612+39857935+39733358+39605741+39492394+39411127+39376265
3419.16+39395382+39466881+39578709+39709164+39831363+39921095+39964680+39962399
3411.44+39926014+39873134+39821911+39787414+39778680+39796398+39832617+39873827
3403.72+39906211+39920763+39916319+39898034+39875057+39857903+39855256+39870790
3396.01+39901340+39937648+39969537+39990668+40000690+40004514+40009754+40023588
3388.29+40049867+40087300+40129177+40165161+40184779+40181748+40157360+40121144
3380.58+40088055+40073208+40086848+40131804+40203707+40293009+40387878+40477404
3372.86+40554458+40617246+40669156+40717455+40771637+40841339+40933378+41048193
3365.14+41177432+41304571+41409536+41475967+41497703+41481190+41442404+41400098
3357.43+41368850+41354787+41354796+41358751+41353811+41330095+41285978+41230367
3349.71+41179874+41151917+41157852+41200155+41274101+41371042+41480692+41592317
3342.00+41696134+41785394+41857766+41914498+41958064+41990600+42014089+42031349
3334.28+42045990+42060994+42077424+42094268+42109413+42120923+42128086+42131692
3326.56+42133157+42132871+42128745+42116247+42090001+42045970+41983007+41903400
3318.85+41812690+41718983+41631666+41559463+41508346+41480277+41473526+41483940
3311.13+41506113+41534053+41561907+41585282+41602545+41614931+41625328+41636271
3303.42+41648082+41657580+41658124+41641419+41600768+41534849+41450554+41363318
3295.70+41293687+41260528+41273449+41328249+41407810+41488385+41548457+41576193
3287.98+41572218+41547034+41515397+41491263+41485242+41503918+41549610+41620010
3280.27+41708649+41806491+41903924+41991678+42060714+42102797+42113546+42097027
3272.55+42068074+42048874+42060244+42112137+42198407+42298178+42382555+42424028
3264.84+42405904+42329431+42215552+42099133+42016731+41992969+42032356+42119738
3257.12+42227485+42324475+42383897+42389529+42340487+42252669+42154478+42077003
3249.40+42042953+42059832+42120182+42207630+42305009+42400307+42488671+42570999
3241.69+42650818+42730882+42810189+42881908+42933157+42947890+42913205+42827019
3233.97+42702782+42567482+42453379+42388405+42390448+42466120+42610744+42807487
3226.26+43027437+43233942+43391550+43475612+43478371+43409925+43295382+43169311
3218.54+43067868+43019678+43038226+43119106+43243411+43385171+43519258+43626850
3210.82+43697539+43729059+43725931+43697728+43657059+43616868+43587263+43572613
3203.11+43570298+43571946+43567305+43549387+43518891+43485654+43466194+43477959
3195.39+43532611+43630914+43760639+43898057+44013345+44079210+44080120+44018099
3187.68+43912072+43791241+43685955+43620007+43606285+43645781+43729377+43841806
3179.96+43966598+44090187+44203647+44302819+44388307+44465447+44542699+44627571
3172.24+44722071+44820580+44911442+44980769+45016479+45011863+44968784+44899832
3164.53+44827131+44776099+44765905+44801795+44874273+44965565+45058733+45144210
3156.81+45221679+45298573+45386527+45496126+45630218+45778514+45917644+46019146
3149.10+46062480+46045870+45988356+45922223+45880912+45889212+45958436+46085443
3141.38+46253559+46436171+46604239+46736328+46826243+46883617+46927162+46975217
3133.66+47039090+47121187+47216530+47315142+47404522+47473005+47514295+47531171
3125.95+47535504+47543477+47568192+47613623+47672885+47731189+47771786+47782612
3118.23+47761635+47719103+47675661+47656916+47686318+47778981+47937794+48152500
3110.52+48402181+48661106+48906557+49124707+49311439+49468249+49597780+49702774
3102.80+49787953+49860619+49927385+49989836+50043786+50083434+50106111+50113259
3095.08+50107616+50090966+50065439+50036700+50015088+50012873+50039688+50099259
3087.37+50188731+50299540+50419043+50532943+50628705+50699357+50746102+50778291
3079.65+50810858+50859721+50936452+51043975+51175435+51317340+51456321+51586001
3071.94+51710226+51840741+51991049+52169935+52377341+52603509+52830611+53036683
3064.22+53201552+53313317+53372379+53390517+53385446+53374514+53371085+53384106
3056.50+53418849+53476966+53556312+53651902+53757904+53868833+53978995+54081482
3048.79+54169013+54237050+54286708+54324718+54359913+54399011+54444513+54495699
3041.07+54551287+54611562+54678981+54757331+54849705+54955643+55068467+55174954
3033.36+55258880+55307696+55319103+55304067+55284521+55286559+55331529+55428127
3025.64+55568590+55730751+55885454+56005999+56075930+56092403+56064947+56011082
3017.92+55950841+55901417+55873612+55871162+55892609+55933790+55989052+56050517
3010.21+56107536+56147487+56158104+56129990+56058216+55943091+55790328+55610584
3002.49+55418030+55227669+55050741+54893971+54760050+54648434+54555597+54474803
2994.78+54396521+54311422+54210567+54085500+53928873+53736520+53510381+53260150
2987.06+53002164+52755666+52538426+52363667+52238778+52165127+52137900+52146222
2979.34+52174714+52206984+52230010+52237679+52232196+52223777+52228865+52266692
2971.63+52353594+52496856+52691309+52921198+53166529+53410074+53641812+53859887
2963.91+54069153+54278294+54496054+54727752+54973489+55228773+55486376+55738214
2956.20+55976792+56196727+56395731+56573741+56730156+56861753+56963736+57033404
2948.48+57072422+57084750+57071855+57029998+56952678+56835470+56678460+56484155
2940.76+56254461+55991541+55703031+55406726+55129205+54898035+54732651+54639339
2933.05+54611351+54631607+54676062+54718697+54738901+54728845+54695287+54653602
2925.33+54617893+54594575+54583357+54582750+54594455+54623971+54679296+54769912
2917.62+54905435+55091979+55326990+55596664+55879118+56151957+56399165+56613783
2909.90+56796446+56952907+57092592+57228327+57376002+57553170+57776557+58058788
2902.18+58405169+58811751+59265731+59748443+60240055+60724300+61192240+61644055
2894.47+62088860+62542233+63021688+63541179+64105951+64710278+65339365+65974943
2886.75+66601724+67211368+67802983+68381571+68956902+69542965+70156147+70810618
2879.03+71512693+72258119+73034795+73829083+74631258+75436615+76243220+77049482
2871.32+77853906+78656527+79459395+80265050+81074162+81884739+82693210+83495631
2863.60+84287034+85059349+85800768+86498825+87145936+87743297+88300296+88829838
2855.89+89343538+89848915+90349027+90842722+91325348+91790506+92233049+92651445
2848.17+93047668+93424830+93784862+94128599+94458039+94778515+95098888+95429650
2840.45+95780324+96157194+96561602+96988571+97426244+97857255+98262452+98626519
2832.74+98942977+99216920+99464089+99706689+99967056+100260632+100590723
2825.99+100947487+101312024+101663728+101987123+102274883+102527935+102754510
2819.24+102969466+103191817+103438870+103719339+104030279+104361493+104704371
2812.48+105058170+105428808+105822192+106238229+106670327+107109145+107546051
2805.73+107973398+108383025+108766827+109120203+109445682+109752375+110051171
2798.98+110349290+110648956+110950670+111256974+111572494+111900296+112238768
2792.23+112582070+112923437+113257776+113581949+113894584+114197226+114495666
2785.48+114798708+115113403+115440221+115771996+116097131+116404226+116685312
2778.73+116937460+117163794+117373667+117580747+117798966+118037926+118300422
2771.98+118582310+118873939+119162741+119436867+119689175+119919081+120130923
2765.22+120330151+120521045+120707886+120897120+121097309+121315458+121552702
2758.47+121802778+122054433+122295557+122516798+122713621+122887172+123043839
2751.72+123193145+123344122+123501189+123661656+123816732+123955701+124071913
2744.97+124167257+124252459+124343029+124453151+124591102+124757567+124946812
2738.22+125149371+125356039+125562066+125769741+125986792+126221242+126476332
2731.47+126749943+127037932+127337723+127648183+127967080+128289925+128611901
2724.71+128930386+129245127+129556571+129865474+130175293+130493835+130830600
2717.96+131190111+131566725+131945559+132308848+132643129+132942920+133210716
2711.21+133454840+133686589+133917135+134154711+134402818+134659774+134918790
2704.46+135168854+135397306+135594633+135758992+135897091+136020321+136139303
2697.71+136261090+136389345+136524891+136664249+136798010+136912631+136996482
2690.96+137045945+137067134+137071988+137072354+137076063+137085713+137099301
2684.21+137111160+137113404+137098271+137061067+137002148+136927077+136844749
2677.45+136763955+136690097+136623211+136558157+136486600+136399372+136288930
2670.70+136151952+135991657+135817888+135643364+135477242+135320404+135165866
2663.95+135004026+134828425+134638711+134440617+134245018+134066167+133918280
2657.20+133810035+133740722+133700886+133677854+133661874+133649202+133641956
2650.45+133646821+133673871+133734060+133835208+133978012+134155283+134354957
2643.70+134564888+134776077+134983844+135187536+135389923+135596018+135811432
2636.95+136040903+136287464+136551815+136831436+137120077+137409062+137690572
2630.19+137960795+138220819+138514611+138712717+138920392+139170606+139466012
2623.44+139778338+140070826+140325332+140552960+140782396+141036169+141314028
2616.69+141593924+141848544+142062561+142239569+142396568+142552891+142721371
2609.94+142903874+143091791+143270563+143426302+143548947+143629284+143655532
2603.19+143617345+143519505+143391399+143278484+143215089+143198663+143186643
2596.44+143118429+142944855+142646770+142236181+141746320+141218730+140689674
2589.68+140178063+139678816+139166095+138606361+137974200+137262801+136484425
2582.93+135661519+134814517+133954694+133086514+132215141+131349548+130496113
2576.18+129648630+128786185+127883572+126925807+125915453+124868811+123806750
2569.43+122746990+121700302+120672171+119670574+118716906+117848807+117105356
2562.68+116499879+116002257+115550813+115089662+114604586+114130912+113730362
2555.93+113458514+113346446+113403407+113630165+114029055+114605639+115365185
2549.18+116308710+117430812+118718108+120147877+121687470+123296090+124927913
2542.42+126535605+128073321+129500800+130789596+131928651+132925830+133459247
2535.67+134278970+134993048+135607111+136129184+136569375+136938250+137244165
2528.92+137491963+137684334+137824997+137920696+137979511+138006824+138002440
2522.17+137961768+137880447+137758672+137602612+137421952+137225964+137020349
2515.42+136806481+136583318+136350756+136112070+135873579+135641235+135417236
2508.67+135199601+134985550+134775631+134574835+134389654+134224127+134078793
2501.92+133952977+133847857+133766719+133712345+133684448+133679583+133693571
2495.16+133723849+133769879+133831945+133910462+134006264+134121297+134258022
2488.41+134417459+134597432+134792344+134994353+135194667+135384348+135555312
2481.66+135702042+135823509+135923088+136005954+136075439+136131244+136170966
2474.91+136193231+136199458+136192636+136174927+136146732+136108132+136060706
2468.16+136007534+135950653+135888758+135817465+135732229+135631356+135516563
2461.41+135391090+135257707+135118864+134978704+134844039+134722470+134618048
2454.65+134528028+134443707+134355037+134255847+134146183+134030520+133913827
2447.90+133798840+133685948+133575116+133467535+133365609+133271112+133183003
2441.15+133096450+133003831+132897269+132771521+132625432+132461428+132283435
2434.40+132094796+131897687+131693743+131485095+131274077+131062258+130849603
2427.65+130634956+130417539+130197775+129976959+129756554+129537729+129321995
2420.90+129111366+128907812+128712041+128523025+128338233+128153807+127964103
2414.15+127761408+127537557+127287584+127012874+126721119+126422690+126126608
2407.39+125839168+125565466+125310902+125079966+124871936+124682954+124506404
2400.64+124335199+124164395+123991382+123814545+123632844+123446907+123261622
2393.89+123081271+122908350+122742617+122581165+122420652+122259407+122097852
2387.14+121937065+121776747+121614677+121447845+121274008+121092432+120903462
2380.39+120707829+120506529+120301350+120094968+119890498+119690561+119496839
2373.64+119310181+119131067+118960022+118797575+118644182+118500016+118364859
2366.89+118238035+118118549+118005428+117897664+117793677+117690652+117584834
2360.13+117472754+117352627+117224705+117090108+116949182+116800849+116643575
2353.38+116477018+116302849+116124273+115944929+115767829+115594736+115426599
2346.63+115264083+115108573+114962632+114829478+114711377+114607631+114513581
2339.88+114421637+114323901+114214648+114090996+113951362+113793734+113615284
2333.13+113414316+113192733+112957080+112716735+112480556+112254221+112039575
2326.38+111835620+111639826+111448990+111259916+111070167+110879170+110688597
2319.62+110501618+110321279+110149113+109984857+109827068+109673985+109523614
2312.87+109373198+109218706+109055538+108880155+108692100+108494544+108293004
2306.12+108093170+107898991+107712528+107534821+107366570+107207717+107056396
2299.37+106908819+106760440+106607883+106449728+106285575+106114050+105931925
2292.62+105735548+105523614+105299363+105070098+104844211+104627687+104422324
2285.87+104227068+104040948+103865588+103704812+103561905+103436295+103322555
2279.12+103212353+103098419+102977387+102849717+102716654+102576701+102424556
2272.36+102253637+102060534+101848360+101626296+101405605+101194919+100997798
2265.61+100813772+100641423+100480647+100332692+100198347+100075942+99960932
2258.86+99847421+99730523+99608472+99482977+99357755+99236003+99118165+99000980
2251.14+98878552+98746142+98602617+98450232+98292295+98130339+97963096+97787896
2243.43+97603871+97414110+97223422+97035116+96849236+96663459+96476217+96289021
2235.71+96106163+95932234+95769815+95619215+95479851+95351419+95233318+95123110
2228.00+95015947+94906008+94788943+94663362+94530082+94390105+94243375+94089456
2220.28+93929286+93766306+93605805+93452733+93309952+93177857+93055371+92941271
2212.56+92834377+92732577+92631859+92526464+92410596+92280441+92135101+91975825
2204.85+91804689+91624143+91437708+91250392+91067958+90894933+90733161+90581949
2197.13+90439574+90304801+90177342+90057380+89944751+89838241+89735267+89632311
2189.42+89526024+89414493+89297715+89176678+89051994+88923173+88789441+88650930
2181.70+88509368+88367497+88227990+88092621+87961813+87834475+87708126+87579774
2173.98+87447192+87309935+87168933+87025042+86877968+86726894+86572373+86417567
2166.27+86267156+86124558+85990151+85862251+85740144+85625952+85523150+85432912
2158.55+85351637+85272445+85189550+85101933+85013463+84929647+84854255+84788119
2150.84+84730751+84682513+84645538+84622621+84615077+84621150+84636026+84653534
2143.12+84668679+84679388+84686685+84693107+84700708+84710112+84721164+84734203
2135.40+84750343+84770313+84792755+84814081+84830411+84840324+84846048+84852109
2127.69+84862709+84880120+84905230+84939119+84983449+85039156+85104348+85173621
2119.97+85239546+85295563+85338284+85367903+85386883+85398318+85405393+85412175
2112.26+85424487+85449093+85491024+85551041+85625380+85708172+85794449+85881339
2104.54+85966816+86047519+86120077+86182115+86233696+86277590+86317850+86357956
2096.82+86399755+86443667+86489713+86536521+86582327+86625586+86665124+86700307
2089.11+86731455+86760205+86789630+86823617+86865800+86918285+86980959+87051680
2081.39+87127214+87204414+87280704+87353783+87420955+87479130+87525863+87561126
2073.68+87588108+87612238+87638315+87667694+87697526+87722687+87738764+87744133
2065.96+87739543+87726390+87705665+87678855+87649957+87626313+87617040+87629810
2058.24+87668175+87731009+87813961+87911108+88015976+88121731+88221631+88310026
2050.53+88383180+88439471+88478953+88503089+88514948+88519482+88523093+88532154
2042.81+88551391+88583059+88627469+88684133+88752673+88832803+88923276+89020784
2035.10+89119779+89213543+89296152+89364240+89417687+89458994+89492163+89521725
2027.38+89552255+89587947+89632008+89685947+89749130+89818769+89890526+89959598
2019.66+90022278+90077711+90128754+90181285+90242138+90316786+90407969+90515315
2011.95+90635596+90763038+90890085+91009142+91115235+91208220+91292947+91377376
2004.23+91469709+91576151+91700067+91841749+91998639+92165448+92334912+92498962
1996.52+92650587+92785303+92902248+93004036+93095963+93184599+93276263+93375470
1988.80+93483990+93600711+93722590+93846076+93968321+94087544+94202835+94314056
1981.08+94422077+94529074+94637874+94750801+94868770+94991794+95120369+95256259
1973.37+95401083+95553949+95710381+95864506+96012885+96156794+96300697+96448114
1965.65+96598702+96748867+96895093+97036913+97176844+97317816+97460563+97603344
1957.94+97743492+97879062+98009148+98133499+98251955+98364332+98470081+98567852
1950.22+98655709+98732028+98796544+98850873+98897772+98940173+98980238+99018758
1942.50+99054462+99084075+99103719+99111148+99106993+99094057+99074929+99050123
1934.79+99018666+98980558+98938158+98895288+98854731+98816554+98778194+98735920
1927.07+98686983+98631830+98575499+98525921+98489576+98466990+98452315+98437342
1919.36+98417081+98391702+98363450+98332669+98297137+98255000+98208135+98162403
1911.64+98124776+98100393+98091568+98098688+98120312+98152181+98187518+98219147
1903.92+98242934+98259601+98273636+98289845+98310084+98332360+98353022+98369895
1896.21+98383243+98393683+98398834+98392858+98369975+98329498+98277619+98224504
1888.49+98178360+98141455+98110616+98080830+98048068+98009754+97963531+97907061
1880.78+97838744+97758934+97670276+97577290+97485380+97399446+97321227+97246935
1873.06+97167217+97071415+96953405+96814929+96663631+96508212+96354155+96203659
1865.34+96058256+95920855+95794117+95677236+95564378+95446855+95316998+95170960
1857.63+95008478+94830754+94638281+94429838+94202926+93955477+93688437+93406915
1849.91+93118795+92831218+92548180+92271569+92004506+91753091+91523454+91316671
1842.20+91126121+90940075+90747962+90545066+90332589+90114279+89892747+89667923
1834.48+89437354+89198507+88951831+88701956+88455618+88216983+87984210+87750572
1826.76+87509917+87261364+87008592+86754464+86496061+86224899+85931948+85613143
1819.05+85271300+84913403+84545896+84171555+83789573+83398261+82997695+82590551
1811.33+82180478+81769552+81356817+80939485+80515097+80082547+79641165+79189315
1803.62+78724129+78242505+77742599+77224756+76691338+76145518+75590042+75026730
1795.90+74457363+73884808+73313683+72748992+72193499+71645126+71096993+70540624
1788.18+69970250+69384622+68785349+68173896+67550623+66916659+66277052+65641686
1780.47+65022357+64427440+63857592+63305435+62759506+62209714+61650638+61080698
1772.75+60499048+59903816+59294017+58672983+58049670+57435087+56806537+56212993
1765.04+55635533+55083319+54544762+53997568+53427852+52839431+52244050+51648297
1757.32+51050855+50451439+49856413+49272359+48694515+48107376+47499294+46877644
1749.60+46265370+45683774+45137619+44615182+44100192+43583233+43063292+42540827
1741.89+42011339+41467015+40905970+40339639+39788124+39262548+38751951+38229122
1734.17+37676059+37107799+36566060+36086398+35671566+35293699+34916001+34512255
1726.46+34071746+33594185+33085806+32559243+32030690+31509945+30989134+30443085
1718.74+29845495+29191109+28506256+27834912+27212180+26647295+26125696+25622151
1711.02+25112464+24579186+24013491+23416812+22802905+22197190+21630343+21123956
1703.31+20673958+20244677+19785515+19264957+18697033+18133727+17630573+17218301
1695.59+16900225+16666015+16503486+16400668+16344116+16322279+16334667+16400482
1687.88+16558062+16852494+17315528+17947247+18711395+19551052+20415579+21279847
1680.16+22146487+23037255+23980071+24995207+26083811+27226049+28392766+29563507
1672.44+30733051+31900447+33052446+34161607+35203480+36179121+37119733+38069339
1664.73+39058270+40086873+41127239+42139462+43089220+43957406+44742524+45461275
1657.01+46144713+46824629+47511854+48180357+48779516+49272542+49668718+50010126
1649.30+50331604+50631572+50880017+51049464+51143223+51193396+51234411+51279410
1641.58+51319430+51340178+51339216+51327878+51318210+51309591+51288785+51244210
1633.86+51176580+51093771+50994930+50862045+50667871+50393064+50040100+49634886
1626.15+49213795+48805799+48421642+48057088+47706028+47372991+47073480+46823599
1618.43+46627348+46474170+46347733+46239393+46153253+46099554+46084447+46106265
1610.72+46159352+46239814+46346957+46481573+46644021+46833827+47049447+47287311
1603.00+47541113+47803026+48067024+48332433+48604768+48893147+49205759+49546216
1595.28+49911949+50294841+50683600+51066812+51436340+51789475+52107851+52440547
1587.57+52760926+53068518+53362671+53642710+53908429+54160559+54400453+54628665
1579.85+54843804+55043100+55225122+55392589+55552953+55716156+55891413+56084687
1572.14+56297657+56527071+56764389+56996435+57208500+57389372+57536143+57655377
1564.42+57759506+57860253+57963919+58071632+58183437+58300965+58425912+58557600
1556.70+58693439+58832007+58974267+59120740+59268043+59409210+59537030+59647049
1548.99+59737711+59808741+59860620+59895579+59918348+59934912+59950234+59967565
1541.27+59990036+60022117+60068140+60129223+60201832+60279937+60358676+60436203
1533.56+60512184+60585308+60652051+60707410+60746313+60764503+60758728+60727197
1525.84+60670344+60592022+60500502+60407894+60326767+60264729+60220732+60185926
1518.12+60148334+60097165+60024458+59925468+59800207+59655451+59503798+59358488
1510.41+59227028+59109110+58999869+58895087+58793150+58694211+58598816+58507948
1502.69+58422563+58341265+58257231+58158196+58030754+57866818+57667660+57443185
1494.98+57207802+56976105+56760714+56571383+56414081+56289787+56194489+56121187
1487.26+56062812+56014275+55972693+55936280+55903569+55872862+55841331+55803670
1479.54+55750955+55670601+55547269+55364663+55108406+54770186+54350909+53860162
1471.83+53311222+52746577+52096352+51452154+50783723+50031526+49138472+48086130
1464.11+46916095+45718600+44595296+43620863+42824967+42198759+41715818+41357766
1456.40+41129689+41058988+41173841+41479410+41945160+42511239+43105097+43657331
1448.68+44109902+44421415+44571405+44559950+44399926+44106085+43690408+43166111
1440.96+42553522+41878554+41164096+40426272+39681625+38958049+38292563+37715357
1433.25+37232428+36825007+36464797+36135364+35844696+35623745+35511419+35534843
1425.53+35693384+35955869+36272936+36596403+36893181+37147724+37360322+37545526
1417.82+37729471+37937794+38179974+38442916+38701949+38939957+39158247+39371531
1410.10+39593106+39822792+40043792+40228613+40351424+40401646+40392425+40355548
1402.38+40321438+40294037+40238526+40093956+39804259+39344799+38726841+37983949
1394.67+37157294+36287389+35409756+34549601+33715179+32899179+32092454+31302009
1386.95+30561658+29924678+29443299+29146033+29026667+29048660+29162039+29322391
1379.24+29502573+29692998+29893664+30104365+30319123+30526541+30713299+30866872
1371.52+30978314+31046785+31086338+31128209+31214141+31380552+31643142+31990682
1363.80+32390960+32802885+33187380+33515119+33768898+33942762+34037811+34057030
1356.09+34000590+33863123+33636036+33313680+32899749+32407965+31856215+31258315
1348.37+30620823+29949226+29259117+28582698+27963000+27437570+27022311+26705406
1340.66+26454947+26234771+26020268+25805292+25598538+25414845+25267808+25166257
1332.94+25111422+25095330+25101517+25109690+25102997+25074407+25027585+24971245
1325.22+24910746+24843302+24760010+24651478+24510930+24333206+24114020+23853236
1317.51+23560568+23255963+22960950+22685854+22423460+22154013+21857803+21526406
1309.79+21166862+20797596+20438954+20102486+19785457+19477166+19177693+18919263
1302.08+18774802+18845061+19231006+20007917+21213336+22849475+24893516+27306368
1294.36+30030688+32977080+36012446+38971320+41697382+44095705+46162002+47969708
1286.64+49627176+51234308+52858874+54532228+56254455+58000407+59724810+61365608
1278.93+62843935+64063218+64916018+65305939+65178955+64545816+63481299+62102070
1271.21+60539062+58918485+57353107+55936663+54735141+53776826+53048068+52500954
1263.50+52072221+51705567+51367399+51050065+50763948+50523425+50333847+50185291
1255.78+50056590+49927219+49789950+49654850+49540779+49461976+49423216+49428275
1248.06+49494560+49657483+49956164+50409805+51003647+51696203+52441028+53205129
1240.35+53970370+54720517+55428315+56055485+56565968+56941093+57184215+57311651
1232.63+57337739+57265353+57087555+56798055+56402771+55924518+55397179+54850872
1224.92+54295631+53714049+53070155+52330791+51486187+50554882+49571028+48566861
1217.20+47565848+46590296+45671557+44848817+44154046+43595579+43155935+42808151
1209.48+42538246+42354944+42279553+42327408+42497837+42778042+43150626+43593121
1201.77+44070123+44529085+44901675+45115689+45146754+44994629+44681814+44247074
1194.05+43735006+43176293+42566512+41864726+41022589+40025479+38911070+37748445
1186.34+36596884+35480563+34397880+33350437+32360862+31463458+30679258+30001131
1178.62+29403543+28867093+28394028+28000272+27693530+27461223+27282002+27149226
1170.90+27081161+27105721+27233744+27446399+27706794+27982051+28254936+28519544
1163.19+28772687+29012793+29244490+29478105+29719446+29958430+30168618+30320268
1155.47+30397648+30408440+30380429+30349026+30341920+30365670+30398856+30397250
1147.76+30312924+30120056+29831251+29491750+29154598+28854432+28596126+28360427
1140.04+28117165+27838397+27511820+27152941+26805011+26516585+26306525+26146270
1132.32+25981530+25780111+25564025+25395633+25330167+25378110+25508680+25684504
1124.61+25891200+26135304+26419132+26719555+26990617+27187251+27291140+27320499
1116.89+27318113+27325702+27360130+27404459+27418242+27361011+27215451+26997242
1109.18+26745243+26496563+26263226+26026386+25753528+25427199+25063824+24709218
1101.46+24415697+24219555+24135286+24167507+24326352+24628839+25080649+25652200
1093.74+26273346+26860402+27362774+27789830+28195862+28632207+29107985+29592608
1086.03+30052846+30485711+30916868+31372138+31855190+32353900+32864995+33408941
1078.31+34018534+34710618+35468146+36250420+37024812+37792277+38581167+39411476
1070.60+40261727+41073549+41794168+42417563+42982629+43528662+44051871+44505172
1062.88+44837702+45031761+45104353+45081568+44979453+44808832+44588611+44344479
1055.16+44091344+43819721+43501592+43109153+42628971+42064809+41436643+40782449
1047.45+40156327+39611619+39170865+38812418+38477919+38113832+37710558+37310111
1039.73+36975189+36742143+36591484+36455311+36255462+35949859+35561930+35172539
1032.02+34872922+34707498+34655992+34669651+34729317+34873068+35165147+35627628
1024.30+36194174+36731529+37116934+37309399+37358639+37350151+37331274+37285013
1016.58+37157377+36914604+36576917+36217998+35925699+35761609+35744084+35859569
1008.87+36087014+36416230+36844161+37369136+37971560+38616756+39260559+39867239
1001.15+40424801+40942407+41434955+41898384+42301068+42600075+42779622+42876082
993.44+42970181+43143858+43437685+43830287+44255296+44641703+44951590+45194037
985.72+45410589+45647143+45932156+46273678+46669769+47116911+47607436+48122017
978.00+48630702+49107129+49545558+49965442+50400018+50879919+51423639+52035716
970.29+52704457+53393888+54041566+54575498+54948362+55165493+55277630+55352661
962.57+55422924+55471935+55452549+55318365+55041892+54612553+54029014+53299002
954.86+52445561+51509053+50541546+49598238+48729824+47973684+47343589+46826985
947.14+46399105+46046894+45781473+45624486+45579962+45619138+45692892+45757240
939.42+45785549+45758991+45651330+45429526+45071488+44582504+43992875+43338566
931.71+42642063+41908031+41134365+40326873+39505904+38701466+37942052+37246888
923.99+36626303+36092337+35663338+35361006+35195814+35151619+35182415+35226498
916.28+35229300+35158650+35004110+34767880+34461609+34113096+33769502+33481155
908.56+33271268+33113208+32943211+32702381+32375395+31994431+31609238+31254575
900.84+30943114+30679765+30470232+30307112+30149146+29924329+29566858+29062485
893.13+28465501+27871420+27369528+27007713+26785892+26669668+26610237+26564448
885.41+26512077+26460963+26431105+26427897+26431366+26417294+26389758+26384458
877.70+26431094+26510592+26561223+26535092+26449693+26377781+26381616+26456884
869.98+26542017+26580497+26573022+26574951+26654363+26858104+27210349+27724935
862.26+28409968+29242352+30155207+31057689+31879685+32606016+33273025+33936022
854.55+34639940+35415752+36293825+37308612+38483428+39812069+41259526+42781576
846.83+44341668+45908732+47446213+48912218+50272462+51508835+52614522+53590471
839.12+54457832+55271277+56100353+56974370+57836952+58564011+59044044+59257935
831.40+59295568+59303089+59410807+59685929+60116591+60614018+61033020+61221819
823.68+61090073+60655732+60036266+59390757+58851708+58482215+58267677+58133229
815.97+57981067+57732623+57366689+56930058+56511268+56193029+56014722+55967931
808.25+56020961+56145254+56318886+56506368+56641989+56646145+56472748+56150057
800.54+55772230+55441886+55206961+55044216+54897989+54734025+54560628+54406686
792.82+54286296+54183803+54066269+53903713+53677979+53379201+53002050+52548671
785.10+52035098+51484378+50913500+50329097+49745335+49211299+48812472+48624166
777.39+48641571+48746828+48753880+48507353+47960551+47174399+46249361+45257772
769.67+44228799+43182160+42162840+41241294+40482169+39908844+39489200+39151619
761.96+38825628+38487157+38178835+37984799+37971317+38136729+38411682+38709470
754.24+38984913+39250798+39544210+39874542+40199986+40453923+40602190+40687540
746.52+40823316+41132737+41671420+42386625+43141099+43780068+44191862+44329566
738.81+44208085+43891481+43490016+43140713+42958018+42978008+43142378+43343343
731.09+43497840+43589853+43649081+43696678+43710120+43643185+43471191+43214879
723.38+42905255+42568976+42220219+41867868+41520477+41178016+40824040+40439313
715.66+40035192+39674027+39443446+39389275+39454781+39483082+39297096+38812012
707.94+38096861+37335341+36723911+36388645+36364720+36627671+37136640+37853018
700.23+38727093+39681053+40610120+41407922+41991681+42318474+42401672+42328739
692.51+42255731+42353365+42717346+43299746+43913119+44325934+44397067+44158702
684.80+43793951+43532187+43534511+43828570+44313025+44816799+45184784+45361678
677.08+45430115+45562259+45912495+46527608+47330167+48176597+48948420+49610727
669.36+50188073+50679038+50996149+50998925+50598335+49837479+48877201+47903091
661.65+47033910+46312613+45773609+45488390+45530110+45917026+46603071+47514304
653.93+48598581+49837588+51178137+52428487+53265879+53447249+53083726+52682541
646.22+52823015+53690531+54829941+55310392+54224950+54218597+54131054+54049046
638.50+54067099+54246436+54593745+55052881+55508932+55826564+55920735+55816233
630.78+55644828+55550703+55594025+55801077+56217515+56859452+57634812+58419083
623.07+59123768+59399600+58404797+57172110+56675524+56498504+56607911+56922022
615.35+57524272+58348139+59013039+60040804+61392263+62413297+63690932+65363032
607.64+66946033+67829741+67681322+66557188+64851073+63203464+62214539+62111525
599.92+62840942
##END=
